150 194 144 173 49 124 129 177 30 86 90 156 28 148 40 46 25 154 112 176 165 105 31 6 195 109 14 135 32 44 12 45 78 137 9 174 161 123 20 138 51 22 17 182 167 5 24 100 163 134 29 111 171 110 183 104 121 37 106 71 166 7 197 83 54 92 53 67 178 187 8 69 102 198 10 186 131 50 94 126 140 15 125 146 70 81 185 39 16 84 101 79 1 193 143 0 190 57 91 184 26 152 107 93 99 41 18 87 128 64 42 60 74 95 132 48 103 75 164 85 142 192 158 13 33 199 55 188 35 118 56 65 62 23 149 117 139 175 38 82 76 122 21 159 196 68 52 168 34 133 2 169 88 172 89 108 147 180 61 58 191 127 43 4 119 170 136 189 97 11 73 19 141 59 80 181 63 145 66 155 113 98 153 130 77 47 72 162 27 116 157 179 120 151 114 3 160 36 96 115 

